
Gurobi 5.6.2 (mac64) logging started Mon Dec 21 22:08:22 2015


Gurobi 5.6.2 (mac64) logging started Mon Dec 21 22:08:35 2015


Gurobi 5.6.2 (mac64) logging started Mon Dec 21 22:09:23 2015


Gurobi 5.6.2 (mac64) logging started Mon Dec 21 22:09:40 2015


Gurobi 5.6.2 (mac64) logging started Mon Dec 21 22:10:39 2015


Gurobi 5.6.2 (mac64) logging started Mon Dec 21 22:17:35 2015


Gurobi 5.6.2 (mac64) logging started Mon Dec 21 22:21:29 2015


Gurobi 5.6.2 (mac64) logging started Mon Dec 21 22:24:27 2015


Gurobi 5.6.2 (mac64) logging started Mon Dec 21 22:29:45 2015


Gurobi 5.6.2 (mac64) logging started Mon Dec 21 22:30:03 2015


Gurobi 5.6.2 (mac64) logging started Mon Dec 21 22:30:07 2015


Gurobi 5.6.2 (mac64) logging started Mon Dec 21 22:30:25 2015


Gurobi 5.6.2 (mac64) logging started Mon Dec 21 22:30:49 2015


Gurobi 5.6.2 (mac64) logging started Mon Dec 21 22:37:06 2015


Gurobi 5.6.2 (mac64) logging started Mon Dec 21 22:37:20 2015


Gurobi 5.6.2 (mac64) logging started Mon Dec 21 22:46:46 2015


Gurobi 5.6.2 (mac64) logging started Mon Dec 21 22:47:19 2015


Gurobi 5.6.2 (mac64) logging started Tue Dec 22 11:17:27 2015


Gurobi 5.6.2 (mac64) logging started Tue Dec 22 11:17:44 2015

